opti conv bfgs opti
cell       
20.3491234400   20.3491234400   20.3491234400   90.00 90.00 90.00 0 0 0 0 0 0
fractional
Zr   s1     0.000000    0.000000    0.000000    1 1 1 1 1 1
Zr   s1     0.000000    0.000000    0.250000    1 1 1 1 1 1
Zr   s1     0.000000    0.000000    0.500000    1 1 1 1 1 1
Zr   s1     0.000000    0.000000    0.750000    1 1 1 1 1 1
Zr   s1     0.000000    0.125000    0.125000    1 1 1 1 1 1
Zr   s1     0.000000    0.125000    0.375000    1 1 1 1 1 1
Zr   s1     0.000000    0.125000    0.625000    1 1 1 1 1 1
Zr   s1     0.000000    0.125000    0.875000    1 1 1 1 1 1
Zr   s1     0.000000    0.250000    0.000000    1 1 1 1 1 1
Zr   s1     0.000000    0.250000    0.250000    1 1 1 1 1 1
Zr   s1     0.000000    0.250000    0.500000    1 1 1 1 1 1
Zr   s1     0.000000    0.250000    0.750000    1 1 1 1 1 1
Zr   s1     0.000000    0.375000    0.125000    1 1 1 1 1 1
Zr   s1     0.000000    0.375000    0.375000    1 1 1 1 1 1
Zr   s1     0.000000    0.375000    0.625000    1 1 1 1 1 1
Zr   s1     0.000000    0.375000    0.875000    1 1 1 1 1 1
Zr   s1     0.000000    0.500000    0.000000    1 1 1 1 1 1
Zr   s1     0.000000    0.500000    0.250000    1 1 1 1 1 1
Zr   s1     0.000000    0.500000    0.500000    1 1 1 1 1 1
Zr   s1     0.000000    0.500000    0.750000    1 1 1 1 1 1
Zr   s1     0.000000    0.625000    0.125000    1 1 1 1 1 1
Zr   s1     0.000000    0.625000    0.375000    1 1 1 1 1 1
Zr   s1     0.000000    0.625000    0.625000    1 1 1 1 1 1
Zr   s1     0.000000    0.625000    0.875000    1 1 1 1 1 1
Zr   s1     0.000000    0.750000    0.000000    1 1 1 1 1 1
Zr   s1     0.000000    0.750000    0.250000    1 1 1 1 1 1
Zr   s1     0.000000    0.750000    0.500000    1 1 1 1 1 1
Zr   s1     0.000000    0.750000    0.750000    1 1 1 1 1 1
Zr   s1     0.000000    0.875000    0.125000    1 1 1 1 1 1
Zr   s1     0.000000    0.875000    0.375000    1 1 1 1 1 1
Zr   s1     0.000000    0.875000    0.625000    1 1 1 1 1 1
Zr   s1     0.000000    0.875000    0.875000    1 1 1 1 1 1
Zr   s1     0.125000    0.000000    0.125000    1 1 1 1 1 1
Zr   s1     0.125000    0.000000    0.375000    1 1 1 1 1 1
Zr   s1     0.125000    0.000000    0.625000    1 1 1 1 1 1
Zr   s1     0.125000    0.000000    0.875000    1 1 1 1 1 1
Zr   s1     0.125000    0.125000    0.000000    1 1 1 1 1 1
Zr   s1     0.125000    0.125000    0.250000    1 1 1 1 1 1
Zr   s1     0.125000    0.125000    0.500000    1 1 1 1 1 1
Zr   s1     0.125000    0.125000    0.750000    1 1 1 1 1 1
Zr   s1     0.125000    0.250000    0.125000    1 1 1 1 1 1
Zr   s1     0.125000    0.250000    0.375000    1 1 1 1 1 1
Zr   s1     0.125000    0.250000    0.625000    1 1 1 1 1 1
Zr   s1     0.125000    0.250000    0.875000    1 1 1 1 1 1
Zr   s1     0.125000    0.375000    0.000000    1 1 1 1 1 1
Zr   s1     0.125000    0.375000    0.250000    1 1 1 1 1 1
Zr   s1     0.125000    0.375000    0.500000    1 1 1 1 1 1
Zr   s1     0.125000    0.375000    0.750000    1 1 1 1 1 1
Zr   s1     0.125000    0.500000    0.125000    1 1 1 1 1 1
Zr   s1     0.125000    0.500000    0.375000    1 1 1 1 1 1
Zr   s1     0.125000    0.500000    0.625000    1 1 1 1 1 1
Zr   s1     0.125000    0.500000    0.875000    1 1 1 1 1 1
Zr   s1     0.125000    0.625000    0.000000    1 1 1 1 1 1
Zr   s1     0.125000    0.625000    0.250000    1 1 1 1 1 1
Zr   s1     0.125000    0.625000    0.500000    1 1 1 1 1 1
Zr   s1     0.125000    0.625000    0.750000    1 1 1 1 1 1
Zr   s1     0.125000    0.750000    0.125000    1 1 1 1 1 1
Zr   s1     0.125000    0.750000    0.375000    1 1 1 1 1 1
Zr   s1     0.125000    0.750000    0.625000    1 1 1 1 1 1
Zr   s1     0.125000    0.750000    0.875000    1 1 1 1 1 1
Zr   s1     0.125000    0.875000    0.000000    1 1 1 1 1 1
Zr   s1     0.125000    0.875000    0.250000    1 1 1 1 1 1
Zr   s1     0.125000    0.875000    0.500000    1 1 1 1 1 1
Zr   s1     0.125000    0.875000    0.750000    1 1 1 1 1 1
Zr   s1     0.250000    0.000000    0.000000    1 1 1 1 1 1
Zr   s1     0.250000    0.000000    0.250000    1 1 1 1 1 1
Zr   s1     0.250000    0.000000    0.500000    1 1 1 1 1 1
Zr   s1     0.250000    0.000000    0.750000    1 1 1 1 1 1
Zr   s1     0.250000    0.125000    0.125000    1 1 1 1 1 1
Zr   s1     0.250000    0.125000    0.375000    1 1 1 1 1 1
Zr   s1     0.250000    0.125000    0.625000    1 1 1 1 1 1
Zr   s1     0.250000    0.125000    0.875000    1 1 1 1 1 1
Zr   s1     0.250000    0.250000    0.000000    1 1 1 1 1 1
Zr   s1     0.250000    0.250000    0.250000    1 1 1 1 1 1
Zr   s1     0.250000    0.250000    0.500000    1 1 1 1 1 1
Zr   s1     0.250000    0.250000    0.750000    1 1 1 1 1 1
Zr   s1     0.250000    0.375000    0.125000    1 1 1 1 1 1
Zr   s1     0.250000    0.375000    0.375000    1 1 1 1 1 1
Zr   s1     0.250000    0.375000    0.625000    1 1 1 1 1 1
Zr   s1     0.250000    0.375000    0.875000    1 1 1 1 1 1
Zr   s1     0.250000    0.500000    0.000000    1 1 1 1 1 1
Zr   s1     0.250000    0.500000    0.250000    1 1 1 1 1 1
Zr   s1     0.250000    0.500000    0.500000    1 1 1 1 1 1
Zr   s1     0.250000    0.500000    0.750000    1 1 1 1 1 1
Zr   s1     0.250000    0.625000    0.125000    1 1 1 1 1 1
Zr   s1     0.250000    0.625000    0.375000    1 1 1 1 1 1
Zr   s1     0.250000    0.625000    0.625000    1 1 1 1 1 1
Zr   s1     0.250000    0.625000    0.875000    1 1 1 1 1 1
Zr   s1     0.250000    0.750000    0.000000    1 1 1 1 1 1
Zr   s1     0.250000    0.750000    0.250000    1 1 1 1 1 1
Zr   s1     0.250000    0.750000    0.500000    1 1 1 1 1 1
Zr   s1     0.250000    0.750000    0.750000    1 1 1 1 1 1
Zr   s1     0.250000    0.875000    0.125000    1 1 1 1 1 1
Zr   s1     0.250000    0.875000    0.375000    1 1 1 1 1 1
Zr   s1     0.250000    0.875000    0.625000    1 1 1 1 1 1
Zr   s1     0.250000    0.875000    0.875000    1 1 1 1 1 1
Zr   s1     0.375000    0.000000    0.125000    1 1 1 1 1 1
Zr   s1     0.375000    0.000000    0.375000    1 1 1 1 1 1
Zr   s1     0.375000    0.000000    0.625000    1 1 1 1 1 1
Zr   s1     0.375000    0.000000    0.875000    1 1 1 1 1 1
Zr   s1     0.375000    0.125000    0.000000    1 1 1 1 1 1
Zr   s1     0.375000    0.125000    0.250000    1 1 1 1 1 1
Zr   s1     0.375000    0.125000    0.500000    1 1 1 1 1 1
Zr   s1     0.375000    0.125000    0.750000    1 1 1 1 1 1
Zr   s1     0.375000    0.250000    0.125000    1 1 1 1 1 1
Zr   s1     0.375000    0.250000    0.375000    1 1 1 1 1 1
Zr   s1     0.375000    0.250000    0.625000    1 1 1 1 1 1
Zr   s1     0.375000    0.250000    0.875000    1 1 1 1 1 1
Zr   s1     0.375000    0.375000    0.000000    1 1 1 1 1 1
Zr   s1     0.375000    0.375000    0.250000    1 1 1 1 1 1
Zr   s1     0.375000    0.375000    0.500000    1 1 1 1 1 1
Zr   s1     0.375000    0.375000    0.750000    1 1 1 1 1 1
Zr   s1     0.375000    0.500000    0.125000    1 1 1 1 1 1
Zr   s1     0.375000    0.500000    0.375000    1 1 1 1 1 1
Zr   s1     0.375000    0.500000    0.625000    1 1 1 1 1 1
Zr   s1     0.375000    0.500000    0.875000    1 1 1 1 1 1
Zr   s1     0.375000    0.625000    0.000000    1 1 1 1 1 1
Zr   s1     0.375000    0.625000    0.250000    1 1 1 1 1 1
Zr   s1     0.375000    0.625000    0.500000    1 1 1 1 1 1
Zr   s1     0.375000    0.625000    0.750000    1 1 1 1 1 1
Zr   s1     0.375000    0.750000    0.125000    1 1 1 1 1 1
Zr   s1     0.375000    0.750000    0.375000    1 1 1 1 1 1
Zr   s1     0.375000    0.750000    0.625000    1 1 1 1 1 1
Zr   s1     0.375000    0.750000    0.875000    1 1 1 1 1 1
Zr   s1     0.375000    0.875000    0.000000    1 1 1 1 1 1
Zr   s1     0.375000    0.875000    0.250000    1 1 1 1 1 1
Zr   s1     0.375000    0.875000    0.500000    1 1 1 1 1 1
Zr   s1     0.375000    0.875000    0.750000    1 1 1 1 1 1
Zr   s1     0.500000    0.000000    0.000000    1 1 1 1 1 1
Zr   s1     0.500000    0.000000    0.250000    1 1 1 1 1 1
Zr   s1     0.500000    0.000000    0.500000    1 1 1 1 1 1
Zr   s1     0.500000    0.000000    0.750000    1 1 1 1 1 1
Zr   s1     0.500000    0.125000    0.125000    1 1 1 1 1 1
Zr   s1     0.500000    0.125000    0.375000    1 1 1 1 1 1
Zr   s1     0.500000    0.125000    0.625000    1 1 1 1 1 1
Zr   s1     0.500000    0.125000    0.875000    1 1 1 1 1 1
Zr   s1     0.500000    0.250000    0.000000    1 1 1 1 1 1
Zr   s1     0.500000    0.250000    0.250000    1 1 1 1 1 1
Zr   s1     0.500000    0.250000    0.500000    1 1 1 1 1 1
Zr   s1     0.500000    0.250000    0.750000    1 1 1 1 1 1
Zr   s1     0.500000    0.375000    0.125000    1 1 1 1 1 1
Zr   s1     0.500000    0.375000    0.375000    1 1 1 1 1 1
Zr   s1     0.500000    0.375000    0.625000    1 1 1 1 1 1
Zr   s1     0.500000    0.375000    0.875000    1 1 1 1 1 1
Zr   s1     0.500000    0.500000    0.000000    1 1 1 1 1 1
Zr   s1     0.500000    0.500000    0.250000    1 1 1 1 1 1
Zr   s1     0.500000    0.500000    0.500000    1 1 1 1 1 1
Zr   s1     0.500000    0.500000    0.750000    1 1 1 1 1 1
Zr   s1     0.500000    0.625000    0.125000    1 1 1 1 1 1
Zr   s1     0.500000    0.625000    0.375000    1 1 1 1 1 1
Zr   s1     0.500000    0.625000    0.625000    1 1 1 1 1 1
Zr   s1     0.500000    0.625000    0.875000    1 1 1 1 1 1
Zr   s1     0.500000    0.750000    0.000000    1 1 1 1 1 1
Zr   s1     0.500000    0.750000    0.250000    1 1 1 1 1 1
Zr   s1     0.500000    0.750000    0.500000    1 1 1 1 1 1
Zr   s1     0.500000    0.750000    0.750000    1 1 1 1 1 1
Zr   s1     0.500000    0.875000    0.125000    1 1 1 1 1 1
Zr   s1     0.500000    0.875000    0.375000    1 1 1 1 1 1
Zr   s1     0.500000    0.875000    0.625000    1 1 1 1 1 1
Zr   s1     0.500000    0.875000    0.875000    1 1 1 1 1 1
Zr   s1     0.625000    0.000000    0.125000    1 1 1 1 1 1
Zr   s1     0.625000    0.000000    0.375000    1 1 1 1 1 1
Zr   s1     0.625000    0.000000    0.625000    1 1 1 1 1 1
Zr   s1     0.625000    0.000000    0.875000    1 1 1 1 1 1
Zr   s1     0.625000    0.125000    0.000000    1 1 1 1 1 1
Zr   s1     0.625000    0.125000    0.250000    1 1 1 1 1 1
Zr   s1     0.625000    0.125000    0.500000    1 1 1 1 1 1
Zr   s1     0.625000    0.125000    0.750000    1 1 1 1 1 1
Zr   s1     0.625000    0.250000    0.125000    1 1 1 1 1 1
Zr   s1     0.625000    0.250000    0.375000    1 1 1 1 1 1
Zr   s1     0.625000    0.250000    0.625000    1 1 1 1 1 1
Zr   s1     0.625000    0.250000    0.875000    1 1 1 1 1 1
Zr   s1     0.625000    0.375000    0.000000    1 1 1 1 1 1
Zr   s1     0.625000    0.375000    0.250000    1 1 1 1 1 1
Zr   s1     0.625000    0.375000    0.500000    1 1 1 1 1 1
Zr   s1     0.625000    0.375000    0.750000    1 1 1 1 1 1
Zr   s1     0.625000    0.500000    0.125000    1 1 1 1 1 1
Zr   s1     0.625000    0.500000    0.375000    1 1 1 1 1 1
Zr   s1     0.625000    0.500000    0.625000    1 1 1 1 1 1
Zr   s1     0.625000    0.500000    0.875000    1 1 1 1 1 1
Zr   s1     0.625000    0.625000    0.000000    1 1 1 1 1 1
Zr   s1     0.625000    0.625000    0.250000    1 1 1 1 1 1
Zr   s1     0.625000    0.625000    0.500000    1 1 1 1 1 1
Zr   s1     0.625000    0.625000    0.750000    1 1 1 1 1 1
Zr   s1     0.625000    0.750000    0.125000    1 1 1 1 1 1
Zr   s1     0.625000    0.750000    0.375000    1 1 1 1 1 1
Zr   s1     0.625000    0.750000    0.625000    1 1 1 1 1 1
Zr   s1     0.625000    0.750000    0.875000    1 1 1 1 1 1
Zr   s1     0.625000    0.875000    0.000000    1 1 1 1 1 1
Zr   s1     0.625000    0.875000    0.250000    1 1 1 1 1 1
Zr   s1     0.625000    0.875000    0.500000    1 1 1 1 1 1
Zr   s1     0.625000    0.875000    0.750000    1 1 1 1 1 1
Zr   s1     0.750000    0.000000    0.000000    1 1 1 1 1 1
Zr   s1     0.750000    0.000000    0.250000    1 1 1 1 1 1
Zr   s1     0.750000    0.000000    0.500000    1 1 1 1 1 1
Zr   s1     0.750000    0.000000    0.750000    1 1 1 1 1 1
Zr   s1     0.750000    0.125000    0.125000    1 1 1 1 1 1
Zr   s1     0.750000    0.125000    0.375000    1 1 1 1 1 1
Zr   s1     0.750000    0.125000    0.625000    1 1 1 1 1 1
Zr   s1     0.750000    0.125000    0.875000    1 1 1 1 1 1
Zr   s1     0.750000    0.250000    0.000000    1 1 1 1 1 1
Zr   s1     0.750000    0.250000    0.250000    1 1 1 1 1 1
Zr   s1     0.750000    0.250000    0.500000    1 1 1 1 1 1
Zr   s1     0.750000    0.250000    0.750000    1 1 1 1 1 1
Zr   s1     0.750000    0.375000    0.125000    1 1 1 1 1 1
Zr   s1     0.750000    0.375000    0.375000    1 1 1 1 1 1
Zr   s1     0.750000    0.375000    0.625000    1 1 1 1 1 1
Zr   s1     0.750000    0.375000    0.875000    1 1 1 1 1 1
Zr   s1     0.750000    0.500000    0.000000    1 1 1 1 1 1
Zr   s1     0.750000    0.500000    0.250000    1 1 1 1 1 1
Zr   s1     0.750000    0.500000    0.500000    1 1 1 1 1 1
Zr   s1     0.750000    0.500000    0.750000    1 1 1 1 1 1
Zr   s1     0.750000    0.625000    0.125000    1 1 1 1 1 1
Zr   s1     0.750000    0.625000    0.375000    1 1 1 1 1 1
Zr   s1     0.750000    0.625000    0.625000    1 1 1 1 1 1
Zr   s1     0.750000    0.625000    0.875000    1 1 1 1 1 1
Zr   s1     0.750000    0.750000    0.000000    1 1 1 1 1 1
Zr   s1     0.750000    0.750000    0.250000    1 1 1 1 1 1
Zr   s1     0.750000    0.750000    0.500000    1 1 1 1 1 1
Zr   s1     0.750000    0.750000    0.750000    1 1 1 1 1 1
Zr   s1     0.750000    0.875000    0.125000    1 1 1 1 1 1
Zr   s1     0.750000    0.875000    0.375000    1 1 1 1 1 1
Zr   s1     0.750000    0.875000    0.625000    1 1 1 1 1 1
Zr   s1     0.750000    0.875000    0.875000    1 1 1 1 1 1
Zr   s1     0.875000    0.000000    0.125000    1 1 1 1 1 1
Zr   s1     0.875000    0.000000    0.375000    1 1 1 1 1 1
Zr   s1     0.875000    0.000000    0.625000    1 1 1 1 1 1
Zr   s1     0.875000    0.000000    0.875000    1 1 1 1 1 1
Zr   s1     0.875000    0.125000    0.000000    1 1 1 1 1 1
Zr   s1     0.875000    0.125000    0.250000    1 1 1 1 1 1
Zr   s1     0.875000    0.125000    0.500000    1 1 1 1 1 1
Zr   s1     0.875000    0.125000    0.750000    1 1 1 1 1 1
Zr   s1     0.875000    0.250000    0.125000    1 1 1 1 1 1
Zr   s1     0.875000    0.250000    0.375000    1 1 1 1 1 1
Zr   s1     0.875000    0.250000    0.625000    1 1 1 1 1 1
Zr   s1     0.875000    0.250000    0.875000    1 1 1 1 1 1
Zr   s1     0.875000    0.375000    0.000000    1 1 1 1 1 1
Zr   s1     0.875000    0.375000    0.250000    1 1 1 1 1 1
Zr   s1     0.875000    0.375000    0.500000    1 1 1 1 1 1
Zr   s1     0.875000    0.375000    0.750000    1 1 1 1 1 1
Zr   s1     0.875000    0.500000    0.125000    1 1 1 1 1 1
Zr   s1     0.875000    0.500000    0.375000    1 1 1 1 1 1
Zr   s1     0.875000    0.500000    0.625000    1 1 1 1 1 1
Zr   s1     0.875000    0.500000    0.875000    1 1 1 1 1 1
Zr   s1     0.875000    0.625000    0.000000    1 1 1 1 1 1
Zr   s1     0.875000    0.625000    0.250000    1 1 1 1 1 1
Zr   s1     0.875000    0.625000    0.500000    1 1 1 1 1 1
Zr   s1     0.875000    0.625000    0.750000    1 1 1 1 1 1
Zr   s1     0.875000    0.750000    0.125000    1 1 1 1 1 1
Zr   s1     0.875000    0.750000    0.375000    1 1 1 1 1 1
Zr   s1     0.875000    0.750000    0.625000    1 1 1 1 1 1
Zr   s1     0.875000    0.750000    0.875000    1 1 1 1 1 1
Zr   s1     0.875000    0.875000    0.000000    1 1 1 1 1 1
Zr   s1     0.875000    0.875000    0.250000    1 1 1 1 1 1
Zr   s1     0.875000    0.875000    0.500000    1 1 1 1 1 1
Zr   s1     0.875000    0.875000    0.750000    1 1 1 1 1 1
O    s2     0.062500    0.062500    0.062500    1 1 1 1 1 1
O    s2     0.062500    0.062500    0.187500    1 1 1 1 1 1
O    s2     0.062500    0.062500    0.312500    1 1 1 1 1 1
O    s2     0.062500    0.062500    0.437500    1 1 1 1 1 1
O    s2     0.062500    0.062500    0.562500    1 1 1 1 1 1
O    s2     0.062500    0.062500    0.687500    1 1 1 1 1 1
O    s2     0.062500    0.062500    0.812500    1 1 1 1 1 1
O    s2     0.062500    0.062500    0.937500    1 1 1 1 1 1
O    s2     0.062500    0.187500    0.062500    1 1 1 1 1 1
O    s2     0.062500    0.187500    0.187500    1 1 1 1 1 1
O    s2     0.062500    0.187500    0.312500    1 1 1 1 1 1
O    s2     0.062500    0.187500    0.437500    1 1 1 1 1 1
O    s2     0.062500    0.187500    0.562500    1 1 1 1 1 1
O    s2     0.062500    0.187500    0.687500    1 1 1 1 1 1
O    s2     0.062500    0.187500    0.812500    1 1 1 1 1 1
O    s2     0.062500    0.187500    0.937500    1 1 1 1 1 1
O    s2     0.062500    0.312500    0.062500    1 1 1 1 1 1
O    s2     0.062500    0.312500    0.187500    1 1 1 1 1 1
O    s2     0.062500    0.312500    0.312500    1 1 1 1 1 1
O    s2     0.062500    0.312500    0.437500    1 1 1 1 1 1
O    s2     0.062500    0.312500    0.562500    1 1 1 1 1 1
O    s2     0.062500    0.312500    0.687500    1 1 1 1 1 1
O    s2     0.062500    0.312500    0.812500    1 1 1 1 1 1
O    s2     0.062500    0.312500    0.937500    1 1 1 1 1 1
O    s2     0.062500    0.437500    0.062500    1 1 1 1 1 1
O    s2     0.062500    0.437500    0.187500    1 1 1 1 1 1
O    s2     0.062500    0.437500    0.312500    1 1 1 1 1 1
O    s2     0.062500    0.437500    0.437500    1 1 1 1 1 1
O    s2     0.062500    0.437500    0.562500    1 1 1 1 1 1
O    s2     0.062500    0.437500    0.687500    1 1 1 1 1 1
O    s2     0.062500    0.437500    0.812500    1 1 1 1 1 1
O    s2     0.062500    0.437500    0.937500    1 1 1 1 1 1
O    s2     0.062500    0.562500    0.062500    1 1 1 1 1 1
O    s2     0.062500    0.562500    0.187500    1 1 1 1 1 1
O    s2     0.062500    0.562500    0.312500    1 1 1 1 1 1
O    s2     0.062500    0.562500    0.437500    1 1 1 1 1 1
O    s2     0.062500    0.562500    0.562500    1 1 1 1 1 1
O    s2     0.062500    0.562500    0.687500    1 1 1 1 1 1
O    s2     0.062500    0.562500    0.812500    1 1 1 1 1 1
O    s2     0.062500    0.562500    0.937500    1 1 1 1 1 1
O    s2     0.062500    0.687500    0.062500    1 1 1 1 1 1
O    s2     0.062500    0.687500    0.187500    1 1 1 1 1 1
O    s2     0.062500    0.687500    0.312500    1 1 1 1 1 1
O    s2     0.062500    0.687500    0.437500    1 1 1 1 1 1
O    s2     0.062500    0.687500    0.562500    1 1 1 1 1 1
O    s2     0.062500    0.687500    0.687500    1 1 1 1 1 1
O    s2     0.062500    0.687500    0.812500    1 1 1 1 1 1
O    s2     0.062500    0.687500    0.937500    1 1 1 1 1 1
O    s2     0.062500    0.812500    0.062500    1 1 1 1 1 1
O    s2     0.062500    0.812500    0.187500    1 1 1 1 1 1
O    s2     0.062500    0.812500    0.312500    1 1 1 1 1 1
O    s2     0.062500    0.812500    0.437500    1 1 1 1 1 1
O    s2     0.062500    0.812500    0.562500    1 1 1 1 1 1
O    s2     0.062500    0.812500    0.687500    1 1 1 1 1 1
O    s2     0.062500    0.812500    0.812500    1 1 1 1 1 1
O    s2     0.062500    0.812500    0.937500    1 1 1 1 1 1
O    s2     0.062500    0.937500    0.062500    1 1 1 1 1 1
O    s2     0.062500    0.937500    0.187500    1 1 1 1 1 1
O    s2     0.062500    0.937500    0.312500    1 1 1 1 1 1
O    s2     0.062500    0.937500    0.437500    1 1 1 1 1 1
O    s2     0.062500    0.937500    0.562500    1 1 1 1 1 1
O    s2     0.062500    0.937500    0.687500    1 1 1 1 1 1
O    s2     0.062500    0.937500    0.812500    1 1 1 1 1 1
O    s2     0.062500    0.937500    0.937500    1 1 1 1 1 1
O    s2     0.187500    0.062500    0.062500    1 1 1 1 1 1
O    s2     0.187500    0.062500    0.187500    1 1 1 1 1 1
O    s2     0.187500    0.062500    0.312500    1 1 1 1 1 1
O    s2     0.187500    0.062500    0.437500    1 1 1 1 1 1
O    s2     0.187500    0.062500    0.562500    1 1 1 1 1 1
O    s2     0.187500    0.062500    0.687500    1 1 1 1 1 1
O    s2     0.187500    0.062500    0.812500    1 1 1 1 1 1
O    s2     0.187500    0.062500    0.937500    1 1 1 1 1 1
O    s2     0.187500    0.187500    0.062500    1 1 1 1 1 1
O    s2     0.187500    0.187500    0.187500    1 1 1 1 1 1
O    s2     0.187500    0.187500    0.312500    1 1 1 1 1 1
O    s2     0.187500    0.187500    0.437500    1 1 1 1 1 1
O    s2     0.187500    0.187500    0.562500    1 1 1 1 1 1
O    s2     0.187500    0.187500    0.687500    1 1 1 1 1 1
O    s2     0.187500    0.187500    0.812500    1 1 1 1 1 1
O    s2     0.187500    0.187500    0.937500    1 1 1 1 1 1
O    s2     0.187500    0.312500    0.062500    1 1 1 1 1 1
O    s2     0.187500    0.312500    0.187500    1 1 1 1 1 1
O    s2     0.187500    0.312500    0.312500    1 1 1 1 1 1
O    s2     0.187500    0.312500    0.437500    1 1 1 1 1 1
O    s2     0.187500    0.312500    0.562500    1 1 1 1 1 1
O    s2     0.187500    0.312500    0.687500    1 1 1 1 1 1
O    s2     0.187500    0.312500    0.812500    1 1 1 1 1 1
O    s2     0.187500    0.312500    0.937500    1 1 1 1 1 1
O    s2     0.187500    0.437500    0.062500    1 1 1 1 1 1
O    s2     0.187500    0.437500    0.187500    1 1 1 1 1 1
O    s2     0.187500    0.437500    0.312500    1 1 1 1 1 1
O    s2     0.187500    0.437500    0.437500    1 1 1 1 1 1
O    s2     0.187500    0.437500    0.562500    1 1 1 1 1 1
O    s2     0.187500    0.437500    0.687500    1 1 1 1 1 1
O    s2     0.187500    0.437500    0.812500    1 1 1 1 1 1
O    s2     0.187500    0.437500    0.937500    1 1 1 1 1 1
O    s2     0.187500    0.562500    0.062500    1 1 1 1 1 1
O    s2     0.187500    0.562500    0.187500    1 1 1 1 1 1
O    s2     0.187500    0.562500    0.312500    1 1 1 1 1 1
O    s2     0.187500    0.562500    0.437500    1 1 1 1 1 1
O    s2     0.187500    0.562500    0.562500    1 1 1 1 1 1
O    s2     0.187500    0.562500    0.687500    1 1 1 1 1 1
O    s2     0.187500    0.562500    0.812500    1 1 1 1 1 1
O    s2     0.187500    0.562500    0.937500    1 1 1 1 1 1
O    s2     0.187500    0.687500    0.062500    1 1 1 1 1 1
O    s2     0.187500    0.687500    0.187500    1 1 1 1 1 1
O    s2     0.187500    0.687500    0.312500    1 1 1 1 1 1
O    s2     0.187500    0.687500    0.437500    1 1 1 1 1 1
O    s2     0.187500    0.687500    0.562500    1 1 1 1 1 1
O    s2     0.187500    0.687500    0.687500    1 1 1 1 1 1
O    s2     0.187500    0.687500    0.812500    1 1 1 1 1 1
O    s2     0.187500    0.687500    0.937500    1 1 1 1 1 1
O    s2     0.187500    0.812500    0.062500    1 1 1 1 1 1
O    s2     0.187500    0.812500    0.187500    1 1 1 1 1 1
O    s2     0.187500    0.812500    0.312500    1 1 1 1 1 1
O    s2     0.187500    0.812500    0.437500    1 1 1 1 1 1
O    s2     0.187500    0.812500    0.562500    1 1 1 1 1 1
O    s2     0.187500    0.812500    0.687500    1 1 1 1 1 1
O    s2     0.187500    0.812500    0.812500    1 1 1 1 1 1
O    s2     0.187500    0.812500    0.937500    1 1 1 1 1 1
O    s2     0.187500    0.937500    0.062500    1 1 1 1 1 1
O    s2     0.187500    0.937500    0.187500    1 1 1 1 1 1
O    s2     0.187500    0.937500    0.312500    1 1 1 1 1 1
O    s2     0.187500    0.937500    0.437500    1 1 1 1 1 1
O    s2     0.187500    0.937500    0.562500    1 1 1 1 1 1
O    s2     0.187500    0.937500    0.687500    1 1 1 1 1 1
O    s2     0.187500    0.937500    0.812500    1 1 1 1 1 1
O    s2     0.187500    0.937500    0.937500    1 1 1 1 1 1
O    s2     0.312500    0.062500    0.062500    1 1 1 1 1 1
O    s2     0.312500    0.062500    0.187500    1 1 1 1 1 1
O    s2     0.312500    0.062500    0.312500    1 1 1 1 1 1
O    s2     0.312500    0.062500    0.437500    1 1 1 1 1 1
O    s2     0.312500    0.062500    0.562500    1 1 1 1 1 1
O    s2     0.312500    0.062500    0.687500    1 1 1 1 1 1
O    s2     0.312500    0.062500    0.812500    1 1 1 1 1 1
O    s2     0.312500    0.062500    0.937500    1 1 1 1 1 1
O    s2     0.312500    0.187500    0.062500    1 1 1 1 1 1
O    s2     0.312500    0.187500    0.187500    1 1 1 1 1 1
O    s2     0.312500    0.187500    0.312500    1 1 1 1 1 1
O    s2     0.312500    0.187500    0.437500    1 1 1 1 1 1
O    s2     0.312500    0.187500    0.562500    1 1 1 1 1 1
O    s2     0.312500    0.187500    0.687500    1 1 1 1 1 1
O    s2     0.312500    0.187500    0.812500    1 1 1 1 1 1
O    s2     0.312500    0.187500    0.937500    1 1 1 1 1 1
O    s2     0.312500    0.312500    0.062500    1 1 1 1 1 1
O    s2     0.312500    0.312500    0.187500    1 1 1 1 1 1
O    s2     0.312500    0.312500    0.312500    1 1 1 1 1 1
O    s2     0.312500    0.312500    0.437500    1 1 1 1 1 1
O    s2     0.312500    0.312500    0.562500    1 1 1 1 1 1
O    s2     0.312500    0.312500    0.687500    1 1 1 1 1 1
O    s2     0.312500    0.312500    0.812500    1 1 1 1 1 1
O    s2     0.312500    0.312500    0.937500    1 1 1 1 1 1
O    s2     0.312500    0.437500    0.062500    1 1 1 1 1 1
O    s2     0.312500    0.437500    0.187500    1 1 1 1 1 1
O    s2     0.312500    0.437500    0.312500    1 1 1 1 1 1
O    s2     0.312500    0.437500    0.437500    1 1 1 1 1 1
O    s2     0.312500    0.437500    0.562500    1 1 1 1 1 1
O    s2     0.312500    0.437500    0.687500    1 1 1 1 1 1
O    s2     0.312500    0.437500    0.812500    1 1 1 1 1 1
O    s2     0.312500    0.437500    0.937500    1 1 1 1 1 1
O    s2     0.312500    0.562500    0.062500    1 1 1 1 1 1
O    s2     0.312500    0.562500    0.187500    1 1 1 1 1 1
O    s2     0.312500    0.562500    0.312500    1 1 1 1 1 1
O    s2     0.312500    0.562500    0.437500    1 1 1 1 1 1
O    s2     0.312500    0.562500    0.562500    1 1 1 1 1 1
O    s2     0.312500    0.562500    0.687500    1 1 1 1 1 1
O    s2     0.312500    0.562500    0.812500    1 1 1 1 1 1
O    s2     0.312500    0.562500    0.937500    1 1 1 1 1 1
O    s2     0.312500    0.687500    0.062500    1 1 1 1 1 1
O    s2     0.312500    0.687500    0.187500    1 1 1 1 1 1
O    s2     0.312500    0.687500    0.312500    1 1 1 1 1 1
O    s2     0.312500    0.687500    0.437500    1 1 1 1 1 1
O    s2     0.312500    0.687500    0.562500    1 1 1 1 1 1
O    s2     0.312500    0.687500    0.687500    1 1 1 1 1 1
O    s2     0.312500    0.687500    0.812500    1 1 1 1 1 1
O    s2     0.312500    0.687500    0.937500    1 1 1 1 1 1
O    s2     0.312500    0.812500    0.062500    1 1 1 1 1 1
O    s2     0.312500    0.812500    0.187500    1 1 1 1 1 1
O    s2     0.312500    0.812500    0.312500    1 1 1 1 1 1
O    s2     0.312500    0.812500    0.437500    1 1 1 1 1 1
O    s2     0.312500    0.812500    0.562500    1 1 1 1 1 1
O    s2     0.312500    0.812500    0.687500    1 1 1 1 1 1
O    s2     0.312500    0.812500    0.812500    1 1 1 1 1 1
O    s2     0.312500    0.812500    0.937500    1 1 1 1 1 1
O    s2     0.312500    0.937500    0.062500    1 1 1 1 1 1
O    s2     0.312500    0.937500    0.187500    1 1 1 1 1 1
O    s2     0.312500    0.937500    0.312500    1 1 1 1 1 1
O    s2     0.312500    0.937500    0.437500    1 1 1 1 1 1
O    s2     0.312500    0.937500    0.562500    1 1 1 1 1 1
O    s2     0.312500    0.937500    0.687500    1 1 1 1 1 1
O    s2     0.312500    0.937500    0.812500    1 1 1 1 1 1
O    s2     0.312500    0.937500    0.937500    1 1 1 1 1 1
O    s2     0.437500    0.062500    0.062500    1 1 1 1 1 1
O    s2     0.437500    0.062500    0.187500    1 1 1 1 1 1
O    s2     0.437500    0.062500    0.312500    1 1 1 1 1 1
O    s2     0.437500    0.062500    0.437500    1 1 1 1 1 1
O    s2     0.437500    0.062500    0.562500    1 1 1 1 1 1
O    s2     0.437500    0.062500    0.687500    1 1 1 1 1 1
O    s2     0.437500    0.062500    0.812500    1 1 1 1 1 1
O    s2     0.437500    0.062500    0.937500    1 1 1 1 1 1
O    s2     0.437500    0.187500    0.062500    1 1 1 1 1 1
O    s2     0.437500    0.187500    0.187500    1 1 1 1 1 1
O    s2     0.437500    0.187500    0.312500    1 1 1 1 1 1
O    s2     0.437500    0.187500    0.437500    1 1 1 1 1 1
O    s2     0.437500    0.187500    0.562500    1 1 1 1 1 1
O    s2     0.437500    0.187500    0.687500    1 1 1 1 1 1
O    s2     0.437500    0.187500    0.812500    1 1 1 1 1 1
O    s2     0.437500    0.187500    0.937500    1 1 1 1 1 1
O    s2     0.437500    0.312500    0.062500    1 1 1 1 1 1
O    s2     0.437500    0.312500    0.187500    1 1 1 1 1 1
O    s2     0.437500    0.312500    0.312500    1 1 1 1 1 1
O    s2     0.437500    0.312500    0.437500    1 1 1 1 1 1
O    s2     0.437500    0.312500    0.562500    1 1 1 1 1 1
O    s2     0.437500    0.312500    0.687500    1 1 1 1 1 1
O    s2     0.437500    0.312500    0.812500    1 1 1 1 1 1
O    s2     0.437500    0.312500    0.937500    1 1 1 1 1 1
O    s2     0.437500    0.437500    0.062500    1 1 1 1 1 1
O    s2     0.437500    0.437500    0.187500    1 1 1 1 1 1
O    s2     0.437500    0.437500    0.312500    1 1 1 1 1 1
O    s2     0.437500    0.437500    0.437500    1 1 1 1 1 1
O    s2     0.437500    0.437500    0.562500    1 1 1 1 1 1
O    s2     0.437500    0.437500    0.687500    1 1 1 1 1 1
O    s2     0.437500    0.437500    0.812500    1 1 1 1 1 1
O    s2     0.437500    0.437500    0.937500    1 1 1 1 1 1
O    s2     0.437500    0.562500    0.062500    1 1 1 1 1 1
O    s2     0.437500    0.562500    0.187500    1 1 1 1 1 1
O    s2     0.437500    0.562500    0.312500    1 1 1 1 1 1
O    s2     0.437500    0.562500    0.437500    1 1 1 1 1 1
O    s2     0.437500    0.562500    0.562500    1 1 1 1 1 1
O    s2     0.437500    0.562500    0.687500    1 1 1 1 1 1
O    s2     0.437500    0.562500    0.812500    1 1 1 1 1 1
O    s2     0.437500    0.562500    0.937500    1 1 1 1 1 1
O    s2     0.437500    0.687500    0.062500    1 1 1 1 1 1
O    s2     0.437500    0.687500    0.187500    1 1 1 1 1 1
O    s2     0.437500    0.687500    0.312500    1 1 1 1 1 1
O    s2     0.437500    0.687500    0.437500    1 1 1 1 1 1
O    s2     0.437500    0.687500    0.562500    1 1 1 1 1 1
O    s2     0.437500    0.687500    0.687500    1 1 1 1 1 1
O    s2     0.437500    0.687500    0.812500    1 1 1 1 1 1
O    s2     0.437500    0.687500    0.937500    1 1 1 1 1 1
O    s2     0.437500    0.812500    0.062500    1 1 1 1 1 1